c width = 2, time = 0.000035
s td 15 3 16
b 1 12 13
b 2 12 13 10
b 3 12 10 11
b 4 12 13 14
b 5 12 14 15
b 6 12 15 4
b 7 12 4 3
b 8 12 3 16
b 9 4 5
b 10 5 6
b 11 6 7
b 12 7 8
b 13 10 9
b 14 9 2
b 15 2 1
1 2
2 3
1 4
4 5
5 6
6 7
7 8
6 9
9 10
10 11
11 12
2 13
13 14
14 15
